100
1000
200
200
199
199
199
196
196
195
194
194
193
193
192
192
192
192
191
191
191
190
188
188
186
185
183
183
183
182
181
180
179
179
179
179
178
177
177
176
176
176
175
175
174
174
174
173
172
172
172
172
170
170
169
169
169
169
168
168
168
168
167
167
166
166
166
165
165
165
164
164
164
164
164
164
163
163
163
161
161
161
160
159
158
158
157
157
156
156
155
155
154
153
153
153
152
152
151
151
150
150
